% PARAMETERS
M = 10;  % Number of machines
N = 20;  % Number of tests
R = 3;   % Number of resources

durations = [229, 306, 695, 199, 659, 121, 61, 142, 592, 746, 
             613, 337, 87, 308, 259, 650, 506, 170, 405, 724];

machines = [
    {}, {}, {}, {}, {}, {}, {1, 2, 8, 7}, 
    {}, {}, {}, {}, {}, {}, {}, {7}, 
    {}, {}, {5, 8}, {}, {}
];

resources = [
    {}, {}, {}, {}, {1}, {}, {}, {3}, {}, {}, {}, {3}, {3}, {}, {}, {}, {}, {}, {2}, {}
];

max_makespan = 2000;

priority_scores = [2300, 3070, 6960, 2000, 16600, 1220, 616, 11430, 5930, 
                   7470, 6140, 13380, 10880, 3090, 2599, 6510, 5070, 1708, 14060, 7250];

priority_order = [5, 19, 12, 8, 13, 10, 20, 3, 16, 11, 9, 17, 14, 2, 15, 1, 4, 18, 6, 7];
